results_rootrelaxation/bin018_060_010.srr.sol
solution status: optimal solution found
objective value:                                    0
_var2788_                          0.0674825788171243 	(obj:0)
_var2826_                           0.124490126523264 	(obj:0)
_var2836_                           0.178170581668815 	(obj:0)
_var2839_                           0.184816051852373 	(obj:0)
_var2848_                           0.305616379567166 	(obj:0)
_var2860_                           0.298834187762013 	(obj:0)
_var2871_                          0.0668931229541401 	(obj:0)
_var2877_                           0.147822345031133 	(obj:0)
_var2880_                          0.0398081111756328 	(obj:0)
_var2897_                           0.204321736022504 	(obj:0)
_var2898_                           0.287703453770603 	(obj:0)
_var2903_                          0.0438150990847599 	(obj:0)
_var2907_                           0.275243168581223 	(obj:0)
_var2908_                           0.198194899510343 	(obj:0)
_var2911_                           0.062117768312493 	(obj:0)
_var2925_                          0.0723153748320099 	(obj:0)
_var2942_                           0.151445109692093 	(obj:0)
_var2944_                           0.102890714070156 	(obj:0)
_var2945_                          0.0377438850852848 	(obj:0)
_var2951_                          0.0557175687018138 	(obj:0)
_var2957_                          0.0999001251677753 	(obj:0)
_var2970_                           0.248127320464117 	(obj:0)
_var2979_                           0.009270717473713 	(obj:0)
_var2981_                           0.129900410227526 	(obj:0)
_var2982_                           0.085312904859408 	(obj:0)
_var2994_                           0.429092305255276 	(obj:0)
_var3000_                          0.0107703166604948 	(obj:0)
_var3001_                          0.0489874567944401 	(obj:0)
_var3002_                          0.0808720936288564 	(obj:0)
_var3005_                           0.108967687613855 	(obj:0)
_var3006_                           0.054257660535478 	(obj:0)
_var3007_                           0.190751454105769 	(obj:0)
_var3016_                           0.267890625339526 	(obj:0)
_var3022_                           0.237404438453973 	(obj:0)
_var3025_                           0.160728156923461 	(obj:0)
_var3026_                          0.0682945777984838 	(obj:0)
_var3027_                          0.0379490688354355 	(obj:0)
_var3033_                          0.0942966494681923 	(obj:0)
_var3034_                           0.123905776136222 	(obj:0)
_var3035_                          0.0264380704839798 	(obj:0)
_var3036_                           0.198789715476569 	(obj:0)
_var3038_                           0.234333070121476 	(obj:0)
_var3039_                          0.0423517812088176 	(obj:0)
_var3050_                          0.0756905134797465 	(obj:0)
_var3051_                          0.0299241538252026 	(obj:0)
_var3053_                           0.170766259240441 	(obj:0)
_var3059_                          0.0234119769531034 	(obj:0)
_var3064_                           0.159724395778613 	(obj:0)
_var3065_                           0.285452055619775 	(obj:0)
_var3066_                           0.157292039378581 	(obj:0)
_var3067_                          0.0437281119417255 	(obj:0)
_var3072_                          0.0803439841255811 	(obj:0)
_var3074_                         0.00783492194209007 	(obj:0)
_var3075_                           0.161502583774421 	(obj:0)
_var3076_                           0.119536170667723 	(obj:0)
_var3078_                           0.078392106454839 	(obj:0)
_var3079_                          0.0955769773752959 	(obj:0)
_var3080_                           0.227015611840591 	(obj:0)
_var3086_                          0.0609167481164353 	(obj:0)
_var3089_                           0.178143199378446 	(obj:0)
_var3090_                           0.185162268744281 	(obj:0)
_var3092_                          0.0894687936533173 	(obj:0)
_var3094_                          0.0221468884258103 	(obj:0)
_var3096_                          0.0662129250901885 	(obj:0)
_var3100_                           0.044273949116421 	(obj:0)
_var3102_                          0.0537057896226615 	(obj:0)
_var3107_                          0.0518426585171237 	(obj:0)
_var3108_                           0.242208823076513 	(obj:0)
_var3110_                           0.247459348921614 	(obj:0)
_var3112_                          0.0801938741344278 	(obj:0)
_var3114_                           0.307559047901351 	(obj:0)
_var3116_                          0.0583390084904857 	(obj:0)
_var3117_                          0.0761847683163706 	(obj:0)
_var3119_                          0.0727165191216065 	(obj:0)
_var3121_                            0.21853956951548 	(obj:0)
_var3124_                          0.0204306133384498 	(obj:0)
_var3125_                           0.229724144991494 	(obj:0)
_var3127_                           0.184390405814412 	(obj:0)
_var3129_                           0.209577297970665 	(obj:0)
_var3130_                             0.1876239514469 	(obj:0)
_var3137_                           0.125063937104799 	(obj:0)
_var3138_                          0.0393260884848351 	(obj:0)
_var3139_                           0.151876090188146 	(obj:0)
_var3140_                           0.186031640248164 	(obj:0)
_var3143_                          0.0875289884688777 	(obj:0)
_var3145_                           0.223561239463548 	(obj:0)
_var3146_                           0.044946559014125 	(obj:0)
_var3147_                          0.0721655555005109 	(obj:0)
_var3148_                          0.0311487040550822 	(obj:0)
_var3150_                           0.142299871960442 	(obj:0)
_var3153_                           0.088822237458721 	(obj:0)
_var3156_                          0.0477136383355215 	(obj:0)
_var3158_                          0.0429563523493793 	(obj:0)
_var3159_                          0.0670178526714212 	(obj:0)
_var3160_                          0.0501041324953694 	(obj:0)
_var3162_                          0.0460944095699484 	(obj:0)
_var3167_                           0.235181114219024 	(obj:0)
_var3168_                           0.144914479654497 	(obj:0)
_var3170_                           0.155837294246141 	(obj:0)
_var3171_                          0.0277016688920109 	(obj:0)
_var3172_                          0.0919506934462346 	(obj:0)
_var3173_                          0.0640015430502558 	(obj:0)
_var3174_                           0.049374967277824 	(obj:0)
_var3178_                          0.0517206055804738 	(obj:0)
_var3180_                            0.04159620161531 	(obj:0)
_var3182_                          0.0212461886828623 	(obj:0)
_var3185_                           0.239863250333397 	(obj:0)
_var3186_                           0.123971373821971 	(obj:0)
_var3187_                            0.16036896461132 	(obj:0)
_var3188_                          0.0493318962831574 	(obj:0)
_var3189_                           0.137255820485884 	(obj:0)
_var3190_                          0.0969921880543226 	(obj:0)
_var3191_                          0.0236458183843919 	(obj:0)
_var3192_                           0.103646908003301 	(obj:0)
_var3194_                           0.177775938682545 	(obj:0)
_var3199_                           0.045801485004005 	(obj:0)
_var3200_                          0.0394650293032319 	(obj:0)
_var3205_                           0.119060890200224 	(obj:0)
_var3207_                           0.187886006007033 	(obj:0)
_var3210_                          0.0925916063420039 	(obj:0)
_var3211_                           0.105582680710452 	(obj:0)
_var3213_                           0.112361085491489 	(obj:0)
_var3215_                              0.118687906218 	(obj:0)
_var3216_                           0.192013062511713 	(obj:0)
_var3218_                           0.152108524972539 	(obj:0)
_var3219_                          0.0713702330342342 	(obj:0)
_var3220_                          0.0649469610490212 	(obj:0)
_var3221_                         0.00595868197074858 	(obj:0)
_var3222_                          0.0232092790918835 	(obj:0)
_var3224_                           0.153532116516099 	(obj:0)
_var3227_                          0.0110059276104545 	(obj:0)
_var3229_                           0.112853209971436 	(obj:0)
_var3234_                           0.120531544730254 	(obj:0)
_var3235_                            0.11654226182961 	(obj:0)
_var3236_                           0.129063621382417 	(obj:0)
_var3238_                          0.0102868125762805 	(obj:0)
_var3239_                           0.047328843686065 	(obj:0)
_var3240_                          0.0067821910198867 	(obj:0)
_var3241_                          0.0916814146629492 	(obj:0)
_var3244_                           0.084109794387891 	(obj:0)
_var3245_                          0.0571684615210175 	(obj:0)
_var3248_                          0.0853895079407511 	(obj:0)
_var3249_                          0.0306403791138295 	(obj:0)
_var3250_                           0.072325185934239 	(obj:0)
_var3252_                          0.0100771629081246 	(obj:0)
_var3253_                         0.00713724855655614 	(obj:0)
_var3254_                         3.3012842273306e-05 	(obj:0)
_var3256_                           0.166344829779843 	(obj:0)
_var3258_                           0.206317003185673 	(obj:0)
_var3260_                            0.16342219268606 	(obj:0)
_var3261_                          0.0330786867738416 	(obj:0)
_var3262_                          0.0132238436340912 	(obj:0)
